# Solution for model GasLib-40
# Objective value = 1.0292052301948939e+01
loadshed[innode_1] 0
loadshed[innode_2] 0
loadshed[innode_3] 0
loadshed[innode_4] 0
loadshed[innode_5] 0
loadshed[innode_6] 0
loadshed[innode_7] 0
loadshed[innode_8] 0
loadshed[source_1] -2.5310896382344006e-01
loadshed[source_2] 1.3585823903655725e-01
loadshed[source_3] 1.8235309823197388e-01
loadshed[sink_1] 0
loadshed[sink_2] 0
loadshed[sink_3] 0
loadshed[sink_4] 0
loadshed[sink_5] 0
loadshed[sink_6] 0
loadshed[sink_7] 0
loadshed[sink_8] 0
loadshed[sink_9] 0
loadshed[sink_10] 0
loadshed[sink_11] 0
loadshed[sink_12] 0.629322943303884
loadshed[sink_13] 0
loadshed[sink_14] 0
loadshed[sink_15] 0
loadshed[sink_16] 0
loadshed[sink_17] 0
loadshed[sink_18] 0
loadshed[sink_19] 0
loadshed[sink_20] 0
loadshed[sink_21] 0
loadshed[sink_22] 0
loadshed[sink_23] 0
loadshed[sink_24] 0
loadshed[sink_25] 0
loadshed[sink_26] 0
loadshed[sink_27] 0
loadshed[sink_28] 0
loadshed[sink_29] 0
flow[source_1,sink_3] 1.9810434417667091e+02
flow[innode_1,sink_16] 1.6354166666666970e+01
flow[innode_6,sink_13] -1.4782859157980624e+01
flow[sink_13,sink_14] -3.1137025824647292e+01
flow[sink_14,sink_10] -4.7491192491313996e+01
flow[sink_25,sink_26] 1.7176655067996921e+02
flow[sink_26,sink_9] 1.2202458389148299e+02
flow[sink_9,sink_18] 1.0567041722481632e+02
flow[sink_26,sink_4] 3.3387800121819566e+01
flow[sink_4,sink_20] -1.7213916694436705e+01
flow[sink_18,sink_6] 8.9316250558149648e+01
flow[sink_25,innode_8] -1.6539601084333458e+02
flow[sink_6,sink_7] 4.0253750558149022e+01
flow[sink_6,sink_22] 3.2708333333333641e+01
flow[sink_7,sink_24] 3.8770447698051065e+01
flow[sink_22,sink_1] 1.6354166666666970e+01
flow[sink_24,sink_21] 22.4162810313844
flow[sink_21,sink_12] 6.0621143647177309e+00
flow[sink_7,sink_5] -1.4870863806568579e+01
flow[sink_5,sink_17] -3.1225030473235279e+01
flow[sink_17,sink_4] -3.4247550149589586e+01
flow[sink_17,sink_8] -1.3331646990312265e+01
flow[sink_3,sink_23] 16.3541666666697
flow[sink_8,sink_20] -2.9685813656978951e+01
flow[sink_25,sink_20] 6.3253897018082370e+01
flow[sink_25,sink_15] -7.1195744363404017e+01
flow[sink_15,sink_29] -1.0390407769675494e+02
flow[sink_29,sink_28] 1.6354166666667879e+01
flow[sink_29,sink_2] 0
flow[sink_2,sink_15] -1.6354166666684250e+01
flow[sink_29,innode_7] -1.3661241103008871e+02
flow[innode_4,sink_19] 5.0525251304801714e+01
flow[sink_19,innode_3] 4.7117794382846910e+01
flow[innode_4,innode_5] 7.8736774519844857e+01
flow[sink_27,innode_5] -7.8736774519844857e+01
flow[sink_27,sink_19] 6.2382607853178229e+01
flow[sink_10,sink_11] 3.2708333333333641e+01
flow[sink_10,innode_2] -4.9435898108467370e+01
flow[sink_10,innode_3] -4.7117794382846910e+01
flow[innode_6,sink_25] 1.4782859157980624e+01
flow[sink_11,innode_1] 1.6354166666666970e+01
flow[sink_19,innode_2] 4.9435898108467370e+01
flow[source_3,innode_4] 1.2926202582464663e+02
flow[source_2,innode_7] 1.3661241103008871e+02
flow[sink_3,innode_8] 1.6539601084333458e+02
pressure[innode_1] 7.6201750630986140e+01
pressure[innode_2] 78.9663433305684
pressure[innode_3] 78.862006310419
pressure[innode_4] 81.01325
pressure[innode_5] 8.0959090694682274e+01
pressure[innode_6] 7.3969967426224429e+01
pressure[innode_7] 81.01325
pressure[innode_8] 8.0351062856019908e+01
pressure[source_1] 81.01325
pressure[source_2] 81.01325
pressure[source_3] 81.01325
pressure[sink_1] 4.6259505775130194e+01
pressure[sink_2] 7.4261943411308323e+01
pressure[sink_3] 8.0351062856019908e+01
pressure[sink_4] 5.7627538815763010e+01
pressure[sink_5] 5.3992671307598428e+01
pressure[sink_6] 4.8360583385517565e+01
pressure[sink_7] 4.7807995340773289e+01
pressure[sink_8] 5.6821748052563244e+01
pressure[sink_9] 54.5690638520485
pressure[sink_10] 7.6353451938589686e+01
pressure[sink_11] 7.6201750630986140e+01
pressure[sink_12] 1.0132499999999998e+00
pressure[sink_13] 7.4051462858317109e+01
pressure[sink_14] 7.4107185218318477e+01
pressure[sink_15] 7.4315336161074768e+01
pressure[sink_16] 7.5180100796168460e+01
pressure[sink_17] 5.6318710376851563e+01
pressure[sink_18] 5.0745593204845633e+01
pressure[sink_19] 78.9663433305684
pressure[sink_20] 5.8890431784811128e+01
pressure[sink_21] 3.1704820717781077e+00
pressure[sink_22] 4.7323274917485207e+01
pressure[sink_23] 8.0186344844360121e+01
pressure[sink_24] 3.41872155699171
pressure[sink_25] 7.3969967426224429e+01
pressure[sink_26] 6.1872550134735405e+01
pressure[sink_27] 80.3057209560832
pressure[sink_28] 7.7064120909833292e+01
pressure[sink_29] 7.7359403183450468e+01
interdiction[source_1,sink_3] 0
interdiction[innode_1,sink_16] 0
interdiction[innode_6,sink_13] 0
interdiction[sink_13,sink_14] 0
interdiction[sink_14,sink_10] 0
interdiction[sink_25,sink_26] 0
interdiction[sink_26,sink_9] 0
interdiction[sink_9,sink_18] 0
interdiction[sink_26,sink_4] 0
interdiction[sink_4,sink_20] 0
interdiction[sink_18,sink_6] 0
interdiction[sink_25,innode_8] 0
interdiction[sink_6,sink_7] 0
interdiction[sink_6,sink_22] 0
interdiction[sink_7,sink_24] 0
interdiction[sink_22,sink_1] 0
interdiction[sink_24,sink_21] 0
interdiction[sink_21,sink_12] 0
interdiction[sink_7,sink_5] 0
interdiction[sink_5,sink_17] 0
interdiction[sink_17,sink_4] 0
interdiction[sink_17,sink_8] 0
interdiction[sink_3,sink_23] 0
interdiction[sink_8,sink_20] 0
interdiction[sink_25,sink_20] 0
interdiction[sink_25,sink_15] 0
interdiction[sink_15,sink_29] 0
interdiction[sink_29,sink_28] 0
interdiction[sink_29,sink_2] 1
interdiction[sink_2,sink_15] 0
interdiction[sink_29,innode_7] 0
interdiction[innode_4,sink_19] 0
interdiction[sink_19,innode_3] 0
interdiction[innode_4,innode_5] 0
interdiction[sink_27,innode_5] 0
interdiction[sink_27,sink_19] 0
interdiction[sink_10,sink_11] 0
interdiction[sink_10,innode_2] 0
interdiction[sink_10,innode_3] 0
interdiction[innode_6,sink_25] 0
interdiction[sink_11,innode_1] 0
interdiction[sink_19,innode_2] 0
interdiction[source_3,innode_4] 0
interdiction[source_2,innode_7] 0
interdiction[sink_3,innode_8] 0
WCcheckFlow[source_1,sink_3] 39
WCcheckFlow[innode_1,sink_16] 1
WCcheckFlow[innode_6,sink_13] 13
WCcheckFlow[sink_13,sink_14] 12
WCcheckFlow[sink_14,sink_10] 11
WCcheckFlow[sink_25,sink_26] 15
WCcheckFlow[sink_26,sink_9] 12
WCcheckFlow[sink_9,sink_18] 11
WCcheckFlow[sink_26,sink_4] 2
WCcheckFlow[sink_4,sink_20] 1
WCcheckFlow[sink_18,sink_6] 10
WCcheckFlow[sink_25,innode_8] -36
WCcheckFlow[sink_6,sink_7] 7
WCcheckFlow[sink_6,sink_22] 2
WCcheckFlow[sink_7,sink_24] 3
WCcheckFlow[sink_22,sink_1] 1
WCcheckFlow[sink_24,sink_21] 2
WCcheckFlow[sink_21,sink_12] 1
WCcheckFlow[sink_7,sink_5] 3
WCcheckFlow[sink_5,sink_17] 2
WCcheckFlow[sink_17,sink_4] 0
WCcheckFlow[sink_17,sink_8] 1
WCcheckFlow[sink_3,sink_23] 1
WCcheckFlow[sink_8,sink_20] 0
WCcheckFlow[sink_25,sink_20] 0
WCcheckFlow[sink_25,sink_15] 6
WCcheckFlow[sink_15,sink_29] 4
WCcheckFlow[sink_29,sink_28] 1
WCcheckFlow[sink_29,sink_2] 0
WCcheckFlow[sink_2,sink_15] -1
WCcheckFlow[sink_29,innode_7] 2
WCcheckFlow[innode_4,sink_19] -4
WCcheckFlow[sink_19,innode_3] -5
WCcheckFlow[innode_4,innode_5] 2
WCcheckFlow[sink_27,innode_5] -1
WCcheckFlow[sink_27,sink_19] 0
WCcheckFlow[sink_10,sink_11] 3
WCcheckFlow[sink_10,innode_2] 1
WCcheckFlow[sink_10,innode_3] 6
WCcheckFlow[innode_6,sink_25] -14
WCcheckFlow[sink_11,innode_1] 2
WCcheckFlow[sink_19,innode_2] 0
WCcheckFlow[source_3,innode_4] -1
WCcheckFlow[source_2,innode_7] -1
WCcheckFlow[sink_3,innode_8] 37
